p cnf 999 1559
122 0
145 0
189 0
217 0
223 0
284 0
292 0
334 0
377 0
448 0
457 0
464 0
471 0
549 0
561 0
639 0
642 0
656 0
665 0
736 0
779 0
811 0
829 0
888 0
893 0
924 0
962 0
985 0
-111 0
-211 0
-311 0
-411 0
-511 0
-611 0
-711 0
-911 0
-117 0
-317 0
-417 0
-517 0
-617 0
-717 0
-817 0
-917 0
-222 0
-322 0
-422 0
-522 0
-622 0
-722 0
-822 0
-922 0
-123 0
-323 0
-423 0
-523 0
-623 0
-723 0
-823 0
-923 0
-124 0
-224 0
-324 0
-424 0
-524 0
-624 0
-724 0
-824 0
-129 0
-229 0
-329 0
-429 0
-529 0
-629 0
-729 0
-929 0
-134 0
-234 0
-434 0
-534 0
-634 0
-734 0
-834 0
-934 0
-136 0
-236 0
-336 0
-436 0
-536 0
-636 0
-836 0
-936 0
-139 0
-239 0
-339 0
-439 0
-539 0
-739 0
-839 0
-939 0
-142 0
-242 0
-342 0
-442 0
-542 0
-742 0
-842 0
-942 0
-245 0
-345 0
-445 0
-545 0
-645 0
-745 0
-845 0
-945 0
-148 0
-248 0
-348 0
-548 0
-648 0
-748 0
-848 0
-948 0
-149 0
-249 0
-349 0
-449 0
-649 0
-749 0
-849 0
-949 0
-156 0
-256 0
-356 0
-456 0
-556 0
-756 0
-856 0
-956 0
-157 0
-257 0
-357 0
-557 0
-657 0
-757 0
-857 0
-957 0
-161 0
-261 0
-361 0
-461 0
-661 0
-761 0
-861 0
-961 0
-162 0
-262 0
-362 0
-462 0
-562 0
-662 0
-762 0
-862 0
-164 0
-264 0
-364 0
-564 0
-664 0
-764 0
-864 0
-964 0
-165 0
-265 0
-365 0
-465 0
-565 0
-765 0
-865 0
-965 0
-171 0
-271 0
-371 0
-571 0
-671 0
-771 0
-871 0
-971 0
-177 0
-277 0
-477 0
-577 0
-677 0
-777 0
-877 0
-977 0
-179 0
-279 0
-379 0
-479 0
-579 0
-679 0
-879 0
-979 0
-184 0
-384 0
-484 0
-584 0
-684 0
-784 0
-884 0
-984 0
-185 0
-285 0
-385 0
-485 0
-585 0
-685 0
-785 0
-885 0
-188 0
-288 0
-388 0
-488 0
-588 0
-688 0
-788 0
-988 0
-289 0
-389 0
-489 0
-589 0
-689 0
-789 0
-889 0
-989 0
-192 0
-392 0
-492 0
-592 0
-692 0
-792 0
-892 0
-992 0
-193 0
-293 0
-393 0
-493 0
-593 0
-693 0
-793 0
-993 0
-112 0
-132 0
-152 0
-172 0
-182 0
-115 0
-125 0
-135 0
-155 0
-175 0
-195 0
-119 0
-159 0
-169 0
-199 0
-212 0
-232 0
-252 0
-272 0
-282 0
-213 0
-233 0
-243 0
-253 0
-263 0
-273 0
-283 0
-214 0
-244 0
-254 0
-274 0
-294 0
-227 0
-237 0
-247 0
-267 0
-287 0
-297 0
-314 0
-344 0
-354 0
-374 0
-394 0
-327 0
-337 0
-347 0
-367 0
-387 0
-397 0
-421 0
-431 0
-441 0
-451 0
-481 0
-491 0
-414 0
-444 0
-454 0
-474 0
-494 0
-427 0
-437 0
-447 0
-467 0
-487 0
-497 0
-418 0
-428 0
-438 0
-458 0
-468 0
-478 0
-498 0
-521 0
-531 0
-541 0
-551 0
-581 0
-591 0
-519 0
-559 0
-569 0
-599 0
-612 0
-632 0
-652 0
-672 0
-682 0
-615 0
-625 0
-635 0
-655 0
-675 0
-695 0
-616 0
-626 0
-646 0
-666 0
-676 0
-686 0
-696 0
-619 0
-659 0
-669 0
-699 0
-716 0
-726 0
-746 0
-766 0
-776 0
-786 0
-796 0
-719 0
-759 0
-769 0
-799 0
-821 0
-831 0
-841 0
-851 0
-881 0
-891 0
-813 0
-833 0
-843 0
-853 0
-863 0
-873 0
-883 0
-818 0
-828 0
-838 0
-858 0
-868 0
-878 0
-898 0
-819 0
-859 0
-869 0
-899 0
-912 0
-932 0
-952 0
-972 0
-982 0
-914 0
-944 0
-954 0
-974 0
-994 0
-915 0
-925 0
-935 0
-955 0
-975 0
-995 0
-121 0
-126 0
-127 0
-128 0
-141 0
-143 0
-144 0
-146 0
-147 0
-181 0
-183 0
-186 0
-187 0
-215 0
-216 0
-218 0
-219 0
-221 0
-225 0
-226 0
-228 0
-281 0
-286 0
-291 0
-295 0
-296 0
-298 0
-299 0
-331 0
-332 0
-333 0
-335 0
-338 0
-372 0
-373 0
-375 0
-376 0
-378 0
-443 0
-446 0
-452 0
-453 0
-455 0
-459 0
-463 0
-466 0
-469 0
-472 0
-473 0
-475 0
-476 0
-543 0
-544 0
-546 0
-547 0
-563 0
-566 0
-567 0
-568 0
-631 0
-633 0
-637 0
-638 0
-641 0
-643 0
-644 0
-647 0
-651 0
-653 0
-654 0
-658 0
-663 0
-667 0
-668 0
-731 0
-732 0
-733 0
-735 0
-737 0
-738 0
-772 0
-773 0
-774 0
-775 0
-778 0
-812 0
-814 0
-815 0
-816 0
-825 0
-826 0
-827 0
-882 0
-886 0
-887 0
-894 0
-895 0
-896 0
-897 0
-921 0
-926 0
-927 0
-928 0
-963 0
-966 0
-967 0
-968 0
-969 0
-981 0
-983 0
-986 0
-987 0
-681 0
-691 0
-721 0
-931 0
-312 0
-382 0
-552 0
-752 0
-852 0
-113 0
-133 0
-313 0
-783 0
-973 0
-114 0
-174 0
-194 0
-554 0
-714 0
-255 0
-355 0
-555 0
-795 0
-875 0
-916 0
-137 0
-197 0
-558 0
-798 0
-978 0
-998 0
-399 0
-419 0
-919 0
-999 0
111 112 113 114 115 116 117 118 119 0
131 132 133 134 135 136 137 138 139 0
151 152 153 154 155 156 157 158 159 0
161 162 163 164 165 166 167 168 169 0
171 172 173 174 175 176 177 178 179 0
191 192 193 194 195 196 197 198 199 0
231 232 233 234 235 236 237 238 239 0
241 242 243 244 245 246 247 248 249 0
251 252 253 254 255 256 257 258 259 0
261 262 263 264 265 266 267 268 269 0
271 272 273 274 275 276 277 278 279 0
311 312 313 314 315 316 317 318 319 0
321 322 323 324 325 326 327 328 329 0
341 342 343 344 345 346 347 348 349 0
351 352 353 354 355 356 357 358 359 0
361 362 363 364 365 366 367 368 369 0
381 382 383 384 385 386 387 388 389 0
391 392 393 394 395 396 397 398 399 0
411 412 413 414 415 416 417 418 419 0
421 422 423 424 425 426 427 428 429 0
431 432 433 434 435 436 437 438 439 0
481 482 483 484 485 486 487 488 489 0
491 492 493 494 495 496 497 498 499 0
511 512 513 514 515 516 517 518 519 0
521 522 523 524 525 526 527 528 529 0
531 532 533 534 535 536 537 538 539 0
551 552 553 554 555 556 557 558 559 0
571 572 573 574 575 576 577 578 579 0
581 582 583 584 585 586 587 588 589 0
591 592 593 594 595 596 597 598 599 0
611 612 613 614 615 616 617 618 619 0
621 622 623 624 625 626 627 628 629 0
671 672 673 674 675 676 677 678 679 0
681 682 683 684 685 686 687 688 689 0
691 692 693 694 695 696 697 698 699 0
711 712 713 714 715 716 717 718 719 0
721 722 723 724 725 726 727 728 729 0
741 742 743 744 745 746 747 748 749 0
751 752 753 754 755 756 757 758 759 0
761 762 763 764 765 766 767 768 769 0
781 782 783 784 785 786 787 788 789 0
791 792 793 794 795 796 797 798 799 0
831 832 833 834 835 836 837 838 839 0
841 842 843 844 845 846 847 848 849 0
851 852 853 854 855 856 857 858 859 0
861 862 863 864 865 866 867 868 869 0
871 872 873 874 875 876 877 878 879 0
911 912 913 914 915 916 917 918 919 0
931 932 933 934 935 936 937 938 939 0
941 942 943 944 945 946 947 948 949 0
951 952 953 954 955 956 957 958 959 0
971 972 973 974 975 976 977 978 979 0
991 992 993 994 995 996 997 998 999 0
-412 -512 0
-412 -712 0
-512 -712 0
-413 -513 0
-413 -613 0
-413 -713 0
-413 -913 0
-513 -613 0
-513 -713 0
-513 -913 0
-613 -713 0
-613 -913 0
-713 -913 0
-514 -614 0
-315 -415 0
-315 -515 0
-315 -715 0
-415 -515 0
-415 -715 0
-515 -715 0
-116 -316 0
-116 -416 0
-116 -516 0
-316 -416 0
-316 -516 0
-416 -516 0
-118 -318 0
-118 -518 0
-118 -618 0
-118 -718 0
-118 -918 0
-318 -518 0
-318 -618 0
-318 -718 0
-318 -918 0
-518 -618 0
-518 -718 0
-518 -918 0
-618 -718 0
-618 -918 0
-718 -918 0
-321 -621 0
-325 -425 0
-325 -525 0
-325 -725 0
-425 -525 0
-425 -725 0
-525 -725 0
-326 -426 0
-326 -526 0
-426 -526 0
-527 -627 0
-527 -727 0
-627 -727 0
-328 -528 0
-328 -628 0
-328 -728 0
-528 -628 0
-528 -728 0
-628 -728 0
-131 -231 0
-432 -532 0
-432 -832 0
-532 -832 0
-433 -533 0
-433 -933 0
-533 -933 0
-235 -435 0
-235 -535 0
-235 -835 0
-435 -535 0
-435 -835 0
-535 -835 0
-537 -837 0
-537 -937 0
-837 -937 0
-138 -238 0
-138 -538 0
-138 -938 0
-238 -538 0
-238 -938 0
-538 -938 0
-241 -341 0
-241 -741 0
-241 -941 0
-341 -741 0
-341 -941 0
-741 -941 0
-343 -743 0
-343 -943 0
-743 -943 0
-744 -844 0
-246 -346 0
-246 -846 0
-246 -946 0
-346 -846 0
-346 -946 0
-846 -946 0
-747 -847 0
-747 -947 0
-847 -947 0
-151 -251 0
-151 -351 0
-151 -751 0
-151 -951 0
-251 -351 0
-251 -751 0
-251 -951 0
-351 -751 0
-351 -951 0
-751 -951 0
-153 -353 0
-153 -553 0
-153 -753 0
-153 -953 0
-353 -553 0
-353 -753 0
-353 -953 0
-553 -753 0
-553 -953 0
-753 -953 0
-154 -754 0
-154 -854 0
-754 -854 0
-755 -855 0
-158 -258 0
-158 -358 0
-158 -758 0
-158 -958 0
-258 -358 0
-258 -758 0
-258 -958 0
-358 -758 0
-358 -958 0
-758 -958 0
-259 -359 0
-259 -959 0
-359 -959 0
-163 -363 0
-163 -763 0
-363 -763 0
-166 -266 0
-166 -366 0
-166 -866 0
-266 -366 0
-266 -866 0
-366 -866 0
-167 -767 0
-167 -867 0
-767 -867 0
-168 -268 0
-168 -368 0
-168 -768 0
-268 -368 0
-268 -768 0
-368 -768 0
-269 -369 0
-572 -872 0
-173 -573 0
-173 -673 0
-573 -673 0
-574 -674 0
-574 -874 0
-674 -874 0
-275 -575 0
-176 -276 0
-176 -576 0
-176 -876 0
-176 -976 0
-276 -576 0
-276 -876 0
-276 -976 0
-576 -876 0
-576 -976 0
-876 -976 0
-178 -278 0
-178 -578 0
-178 -678 0
-278 -578 0
-278 -678 0
-578 -678 0
-381 -781 0
-482 -582 0
-482 -782 0
-582 -782 0
-383 -483 0
-383 -583 0
-383 -683 0
-483 -583 0
-483 -683 0
-583 -683 0
-386 -486 0
-386 -586 0
-486 -586 0
-587 -687 0
-587 -787 0
-687 -787 0
-191 -391 0
-191 -791 0
-191 -991 0
-391 -791 0
-391 -991 0
-791 -991 0
-594 -694 0
-594 -794 0
-694 -794 0
-395 -495 0
-395 -595 0
-495 -595 0
-196 -396 0
-196 -496 0
-196 -596 0
-196 -996 0
-396 -496 0
-396 -596 0
-396 -996 0
-496 -596 0
-496 -996 0
-596 -996 0
-597 -697 0
-597 -797 0
-597 -997 0
-697 -797 0
-697 -997 0
-797 -997 0
-198 -398 0
-198 -598 0
-198 -698 0
-398 -598 0
-398 -698 0
-598 -698 0
-131 -151 0
-131 -191 0
-151 -191 0
-153 -163 0
-153 -173 0
-163 -173 0
-116 -166 0
-116 -176 0
-116 -196 0
-166 -176 0
-166 -196 0
-176 -196 0
-118 -138 0
-118 -158 0
-118 -168 0
-118 -178 0
-118 -198 0
-138 -158 0
-138 -168 0
-138 -178 0
-138 -198 0
-158 -168 0
-158 -178 0
-158 -198 0
-168 -178 0
-168 -198 0
-178 -198 0
-231 -241 0
-231 -251 0
-241 -251 0
-235 -275 0
-246 -266 0
-246 -276 0
-266 -276 0
-238 -258 0
-238 -268 0
-238 -278 0
-258 -268 0
-258 -278 0
-268 -278 0
-259 -269 0
-321 -341 0
-321 -351 0
-321 -381 0
-321 -391 0
-341 -351 0
-341 -381 0
-341 -391 0
-351 -381 0
-351 -391 0
-381 -391 0
-343 -353 0
-343 -363 0
-343 -383 0
-353 -363 0
-353 -383 0
-363 -383 0
-315 -325 0
-315 -395 0
-325 -395 0
-316 -326 0
-316 -346 0
-316 -366 0
-316 -386 0
-316 -396 0
-326 -346 0
-326 -366 0
-326 -386 0
-326 -396 0
-346 -366 0
-346 -386 0
-346 -396 0
-366 -386 0
-366 -396 0
-386 -396 0
-318 -328 0
-318 -358 0
-318 -368 0
-318 -398 0
-328 -358 0
-328 -368 0
-328 -398 0
-358 -368 0
-358 -398 0
-368 -398 0
-319 -359 0
-319 -369 0
-359 -369 0
-412 -432 0
-412 -482 0
-432 -482 0
-413 -433 0
-413 -483 0
-433 -483 0
-415 -425 0
-415 -435 0
-415 -495 0
-425 -435 0
-425 -495 0
-435 -495 0
-416 -426 0
-416 -486 0
-416 -496 0
-426 -486 0
-426 -496 0
-486 -496 0
-512 -532 0
-512 -572 0
-512 -582 0
-532 -572 0
-532 -582 0
-572 -582 0
-513 -533 0
-513 -553 0
-513 -573 0
-513 -583 0
-533 -553 0
-533 -573 0
-533 -583 0
-553 -573 0
-553 -583 0
-573 -583 0
-514 -574 0
-514 -594 0
-574 -594 0
-515 -525 0
-515 -535 0
-515 -575 0
-515 -595 0
-525 -535 0
-525 -575 0
-525 -595 0
-535 -575 0
-535 -595 0
-575 -595 0
-516 -526 0
-516 -576 0
-516 -586 0
-516 -596 0
-526 -576 0
-526 -586 0
-526 -596 0
-576 -586 0
-576 -596 0
-586 -596 0
-527 -537 0
-527 -587 0
-527 -597 0
-537 -587 0
-537 -597 0
-587 -597 0
-518 -528 0
-518 -538 0
-518 -578 0
-518 -598 0
-528 -538 0
-528 -578 0
-528 -598 0
-538 -578 0
-538 -598 0
-578 -598 0
-613 -673 0
-613 -683 0
-673 -683 0
-614 -674 0
-614 -694 0
-674 -694 0
-627 -687 0
-627 -697 0
-687 -697 0
-618 -628 0
-618 -678 0
-618 -698 0
-628 -678 0
-628 -698 0
-678 -698 0
-741 -751 0
-741 -781 0
-741 -791 0
-751 -781 0
-751 -791 0
-781 -791 0
-712 -782 0
-713 -743 0
-713 -753 0
-713 -763 0
-743 -753 0
-743 -763 0
-753 -763 0
-744 -754 0
-744 -794 0
-754 -794 0
-715 -725 0
-715 -755 0
-725 -755 0
-727 -747 0
-727 -767 0
-727 -787 0
-727 -797 0
-747 -767 0
-747 -787 0
-747 -797 0
-767 -787 0
-767 -797 0
-787 -797 0
-718 -728 0
-718 -758 0
-718 -768 0
-728 -758 0
-728 -768 0
-758 -768 0
-832 -872 0
-844 -854 0
-844 -874 0
-854 -874 0
-835 -855 0
-846 -866 0
-846 -876 0
-866 -876 0
-837 -847 0
-837 -867 0
-847 -867 0
-941 -951 0
-941 -991 0
-951 -991 0
-913 -933 0
-913 -943 0
-913 -953 0
-933 -943 0
-933 -953 0
-943 -953 0
-946 -976 0
-946 -996 0
-976 -996 0
-937 -947 0
-937 -997 0
-947 -997 0
-918 -938 0
-918 -958 0
-938 -958 0
-116 -118 0
-131 -138 0
-151 -153 0
-151 -154 0
-151 -158 0
-153 -154 0
-153 -158 0
-154 -158 0
-163 -166 0
-163 -167 0
-163 -168 0
-166 -167 0
-166 -168 0
-167 -168 0
-173 -176 0
-173 -178 0
-176 -178 0
-191 -196 0
-191 -198 0
-196 -198 0
-231 -235 0
-231 -238 0
-235 -238 0
-241 -246 0
-251 -258 0
-251 -259 0
-258 -259 0
-266 -268 0
-266 -269 0
-268 -269 0
-275 -276 0
-275 -278 0
-276 -278 0
-315 -316 0
-315 -318 0
-315 -319 0
-316 -318 0
-316 -319 0
-318 -319 0
-321 -325 0
-321 -326 0
-321 -328 0
-325 -326 0
-325 -328 0
-326 -328 0
-341 -343 0
-341 -346 0
-343 -346 0
-351 -352 0
-351 -353 0
-351 -358 0
-351 -359 0
-352 -353 0
-352 -358 0
-352 -359 0
-353 -358 0
-353 -359 0
-358 -359 0
-363 -366 0
-363 -368 0
-363 -369 0
-366 -368 0
-366 -369 0
-368 -369 0
-381 -383 0
-381 -386 0
-383 -386 0
-391 -395 0
-391 -396 0
-391 -398 0
-395 -396 0
-395 -398 0
-396 -398 0
-412 -413 0
-412 -415 0
-412 -416 0
-413 -415 0
-413 -416 0
-415 -416 0
-425 -426 0
-432 -433 0
-432 -435 0
-433 -435 0
-482 -483 0
-482 -486 0
-483 -486 0
-495 -496 0
-495 -499 0
-496 -499 0
-512 -513 0
-512 -514 0
-512 -515 0
-512 -516 0
-512 -518 0
-513 -514 0
-513 -515 0
-513 -516 0
-513 -518 0
-514 -515 0
-514 -516 0
-514 -518 0
-515 -516 0
-515 -518 0
-516 -518 0
-525 -526 0
-525 -527 0
-525 -528 0
-526 -527 0
-526 -528 0
-527 -528 0
-532 -533 0
-532 -535 0
-532 -537 0
-532 -538 0
-533 -535 0
-533 -537 0
-533 -538 0
-535 -537 0
-535 -538 0
-537 -538 0
-572 -573 0
-572 -574 0
-572 -575 0
-572 -576 0
-572 -578 0
-573 -574 0
-573 -575 0
-573 -576 0
-573 -578 0
-574 -575 0
-574 -576 0
-574 -578 0
-575 -576 0
-575 -578 0
-576 -578 0
-582 -583 0
-582 -586 0
-582 -587 0
-583 -586 0
-583 -587 0
-586 -587 0
-594 -595 0
-594 -596 0
-594 -597 0
-594 -598 0
-595 -596 0
-595 -597 0
-595 -598 0
-596 -597 0
-596 -598 0
-597 -598 0
-613 -614 0
-613 -618 0
-614 -618 0
-621 -627 0
-621 -628 0
-627 -628 0
-673 -674 0
-673 -678 0
-674 -678 0
-683 -687 0
-694 -697 0
-694 -698 0
-697 -698 0
-712 -713 0
-712 -715 0
-712 -718 0
-713 -715 0
-713 -718 0
-715 -718 0
-725 -727 0
-725 -728 0
-727 -728 0
-741 -743 0
-741 -744 0
-741 -747 0
-743 -744 0
-743 -747 0
-744 -747 0
-751 -753 0
-751 -754 0
-751 -755 0
-751 -758 0
-753 -754 0
-753 -755 0
-753 -758 0
-754 -755 0
-754 -758 0
-755 -758 0
-763 -767 0
-763 -768 0
-767 -768 0
-781 -782 0
-781 -787 0
-782 -787 0
-791 -794 0
-791 -797 0
-794 -797 0
-832 -835 0
-832 -837 0
-835 -837 0
-844 -846 0
-844 -847 0
-846 -847 0
-854 -855 0
-866 -867 0
-872 -874 0
-872 -876 0
-874 -876 0
-913 -918 0
-933 -937 0
-933 -938 0
-937 -938 0
-941 -943 0
-941 -946 0
-941 -947 0
-943 -946 0
-943 -947 0
-946 -947 0
-951 -953 0
-951 -958 0
-951 -959 0
-953 -958 0
-953 -959 0
-958 -959 0
-991 -996 0
-991 -997 0
-996 -997 0
-241 -251 0
-341 -351 0
-381 -391 0
-741 -751 0
-941 -951 0
-781 -791 0
-412 -432 0
-512 -532 0
-572 -582 0
-153 -163 0
-343 -353 0
-343 -363 0
-353 -363 0
-413 -433 0
-513 -533 0
-573 -583 0
-673 -683 0
-913 -933 0
-743 -753 0
-743 -763 0
-753 -763 0
-943 -953 0
-574 -594 0
-674 -694 0
-744 -754 0
-844 -854 0
-315 -325 0
-415 -425 0
-415 -435 0
-425 -435 0
-515 -525 0
-515 -535 0
-525 -535 0
-575 -595 0
-715 -725 0
-316 -326 0
-246 -266 0
-346 -366 0
-176 -196 0
-386 -396 0
-416 -426 0
-516 -526 0
-486 -496 0
-576 -586 0
-576 -596 0
-586 -596 0
-846 -866 0
-976 -996 0
-527 -537 0
-587 -597 0
-687 -697 0
-747 -767 0
-847 -867 0
-787 -797 0
-118 -138 0
-318 -328 0
-158 -168 0
-258 -268 0
-358 -368 0
-178 -198 0
-518 -528 0
-518 -538 0
-528 -538 0
-618 -628 0
-578 -598 0
-678 -698 0
-718 -728 0
-918 -938 0
-758 -768 0
-259 -269 0
-359 -369 0
-131 -231 0
-131 -321 0
-231 -321 0
-151 -241 0
-151 -251 0
-151 -341 0
-151 -351 0
-241 -341 0
-241 -351 0
-251 -341 0
-251 -351 0
-191 -381 0
-191 -391 0
-741 -941 0
-741 -951 0
-751 -941 0
-751 -951 0
-781 -991 0
-791 -991 0
-412 -512 0
-412 -532 0
-432 -512 0
-432 -532 0
-482 -572 0
-482 -582 0
-712 -832 0
-782 -872 0
-153 -343 0
-153 -353 0
-153 -363 0
-163 -343 0
-163 -353 0
-163 -363 0
-173 -383 0
-413 -513 0
-413 -533 0
-413 -613 0
-433 -513 0
-433 -533 0
-433 -613 0
-513 -613 0
-533 -613 0
-483 -573 0
-483 -583 0
-483 -673 0
-483 -683 0
-573 -673 0
-573 -683 0
-583 -673 0
-583 -683 0
-713 -913 0
-713 -933 0
-743 -943 0
-743 -953 0
-753 -943 0
-753 -953 0
-763 -943 0
-763 -953 0
-514 -614 0
-574 -674 0
-574 -694 0
-594 -674 0
-594 -694 0
-744 -844 0
-744 -854 0
-754 -844 0
-754 -854 0
-794 -874 0
-235 -315 0
-235 -325 0
-275 -395 0
-415 -515 0
-415 -525 0
-415 -535 0
-425 -515 0
-425 -525 0
-425 -535 0
-435 -515 0
-435 -525 0
-435 -535 0
-495 -575 0
-495 -595 0
-715 -835 0
-725 -835 0
-755 -855 0
-116 -316 0
-116 -326 0
-166 -246 0
-166 -266 0
-166 -346 0
-166 -366 0
-246 -346 0
-246 -366 0
-266 -346 0
-266 -366 0
-176 -276 0
-176 -386 0
-176 -396 0
-196 -276 0
-196 -386 0
-196 -396 0
-276 -386 0
-276 -396 0
-416 -516 0
-416 -526 0
-426 -516 0
-426 -526 0
-486 -576 0
-486 -586 0
-486 -596 0
-496 -576 0
-496 -586 0
-496 -596 0
-846 -946 0
-866 -946 0
-876 -976 0
-876 -996 0
-527 -627 0
-537 -627 0
-587 -687 0
-587 -697 0
-597 -687 0
-597 -697 0
-727 -837 0
-727 -937 0
-837 -937 0
-747 -847 0
-747 -867 0
-747 -947 0
-767 -847 0
-767 -867 0
-767 -947 0
-847 -947 0
-867 -947 0
-787 -997 0
-797 -997 0
-118 -238 0
-118 -318 0
-118 -328 0
-138 -238 0
-138 -318 0
-138 -328 0
-238 -318 0
-238 -328 0
-158 -258 0
-158 -268 0
-158 -358 0
-158 -368 0
-168 -258 0
-168 -268 0
-168 -358 0
-168 -368 0
-258 -358 0
-258 -368 0
-268 -358 0
-268 -368 0
-178 -278 0
-178 -398 0
-198 -278 0
-198 -398 0
-278 -398 0
-518 -618 0
-518 -628 0
-528 -618 0
-528 -628 0
-538 -618 0
-538 -628 0
-578 -678 0
-578 -698 0
-598 -678 0
-598 -698 0
-718 -918 0
-718 -938 0
-728 -918 0
-728 -938 0
-758 -958 0
-768 -958 0
-259 -359 0
-259 -369 0
-269 -359 0
-269 -369 0
